3049 2903 2654 2627 2616 2642 2608 2641 2609 2641 2642 2604 2593 2590 2590 2603 2595 2535 2532 2502 2470 2441 2406 2379 2332 2286 2237 2209 2178 2130 2100 2077 2061 2018 2013 1991 1983 1974 1969 1958 1944 1914 1908 1894 1872 1863 1845 1824 1803 1764 1761 1743 1735 1729 1722 1711 1686 1677 1660 1641 1617 1613 1613 1607 1603 1596 1591 1571 1568 1558 1546 1535 1517 1508 1504 1492 1484 1484 1481 1479 1474 1470 1463 1457 1448 1442 1441 1435 1435 1427 1423 1417 1417 1410 1406 1404 1402 1396 1395 1391 1382 1382 1374 1366 1360 1359 1350 1350 1341 1331 1331 1327 1326 1324 1322 1322 1320 1316 1316 1308 1308 1303 1299 1298 1291 1291 1289 1288 1274 1272 1269 1267 1263 1260 1257 1257 1251 1251 1247 1247 1247 1245 1245 1245 1244 1244 1236 1235 1235 1235 1231 1231 1230 1230 1230 1230 1229 1229 1229 1228 1228 1228 1227 1227 1227 1227 1227 1227 1227 1227 1227 1226 1226 1220 1220 1219 1218 1218 1218 1211 1211 1202 1201 1201 1201 1198 1198 1197 1197 1194 1194 1194 1194 1193 1193 1192 1191 1191 1191 1190 1190 1189 1189 1189 1188 1188 1188 1188 1188 1188 1188 1188 1188 1188 1182 1182 1182 1182 1182 1182 1182 1182 1182 1182 1182 1182 1182 1182 1182 1182 1182 1182 1182 1182 1182 1182 1182 1182 1182 1182 1182 1182 1179 1179 1179 1179 1179 1179 1179 1179 1179 1179 1179 1179 1179 1172 1172 1172 1172 1170 1170 1170 1170 1170 1170 1170 1170 1170 1170 1169 1169 1168 1168 1166 1166 1164 1164 1164 1164 1164 1148 1148 1148 1148 1146 1146 1146 1146 1146 1145 1143 1143 1142 1139 1139 1138 1134 1134 1133 1133 1133 1133 1133 1133 1132 1132 1132 1132 1132 1132 1132 1127 1127 1127 1127 1127 1127 1127 1127 1127 1127 1127 1127 1126 1126 1126 1126 1126 1126 1121 1121 1121 1121 1121 1121 1121 1120 1120 1120 1120 1120 1120 1120 1119 1118 1118 1112 1112 1109 1109 1109 1108 1108 1108 1107 1107 1105 1105 1105 1105 1105 1105 1104 1102 1102 1102 1101 1101 1101 1101 1101 1101 1101 1101 1101 1101 1099 1099 1098 1098 1098 1098 1098 1098 1098 1098 1098 1098 1098 1098 1098 1098 1098 1098 1098 1098 1098 1098 1098 1098 1098 1098 1098 1098 1098 1098 1098 1098 1098 1098 1098 1098 1098 1098 1098 1098 1098 1098 1098 1098 1098 1098 1098 1098 1098 1098 1098 1098 1098 1098 1098 1098 1098 1098 1098 1098 1098 1098 1098 1098 1098 1098 1098 1098 1098 1098 1098 1098 1098 1098 1098 1098 1098 1098 1098 1098 1098 1098 1098 1098 1098 1098 1096 1096 1096 1096 1096 1096 1096 1096 1096 1096 1096 1096 1096 1096 1096 1096 1096 1096 1096 1096 1096 1096 1096 1096 1096 1096 1096 1096 1096 1096 1096 1096 1096 1096 1096 1096 1096 1096 1096 1096 1096 1096 1096 1096 1096 1096 1096 1096 1096 1096 1096 1096 1096 1096 1096 1096 1096 1096 1096 1096 1096 1096 1096 1096 1096 1096 1096 1096 1096 1096 1096 1096 1096 1096 1096 1096 1096 1096 1096 1096 1096 1096 1096 1096 1096 1096 1096 1096 1096 1096 1096 1096 1096 1096 1096 1096 1096 1096 1096 1096 1096 1096 1096 1096 1096 1096 1096 1096 1096 1096 1096 1096 1096 1096 1096 1096 1096 1096 1096 1096 1096 1096 1096 1096 1096 1096 1096 1096 1096 1096 1096 1096 1096 1096 1096 1096 1096 1096 1096 1096 1096 1096 1096 1096 1096 1096 1096 1096 1096 1096 1096 1096 1096 1096 1096 1096 1096 1096 1096 1096 1096 1096 1096 1096 1096 1096 1096 1096 1096 1096 1096 1096 1096 1096 1096 1096 1096 1096 1096 1096 1096 1096 1096 1096 1096 1096 1096 1096 1096 1096 1096 1096 1096 1096 1096 1096 1096 1096 1096 1096 1096 1096 1096 1096 1096 1096 1096 1096 1096 1096 1096 1096 1096 1096 1096 1096 1096 1096 1096 1096 1096 1096 1096 1096 1096 1096 1096 1096 1096 1096 1096 1096 1096 1096 1096 1096 1096 1096 1096 1096 1096 1096 1096 1096 1096 1096 1096 1096 1096 1096 1096 1096 1096 1096 1096 1096 1096 1096 1096 1096 1096 1096 1096 1096 1096 1096 1096 1096 1096 1096 1096 1096 1096 1096 1096 1096 1096 1096 1096 1096 1096 1096 1096 1096 1096 1096 1096 1096 1096 1096 1096 1096 1096 1096 1096 1096 1096 1096 1096 1096 1096 1096 1096 1096 1096 1096 1096 1096 1096 1096 1096 1096 1096 1096 1096 1096 1096 1096 1096 1096 1096 1096 1096 1096 1096 1096 1095 1095 1095 1095 1095 1095 1095 1095 1095 1095 1095 1095 1095 1095 1095 1095 1095 1095 1095 1095 1095 1095 1095 1095 1095 1095 1095 1095 1095 1095 1095 1095 1095 1095 1095 1095 1095 1095 1095 1095 1095 1095 1095 1095 1095 1095 1095 1095 1095 1095 1095 1095 1095 1095 1095 1095 1095 1095 1095 1095 1095 1095 1095 1095 1095 1095 1095 1095 1095 1095 1095 1095 1095 1095 1095 1095 1095 1095 1095 1095 1095 1095 1095 1095 1095 1095 1095 1095 1095 1095 1095 1095 1095 1095 1095 1095 1095 1095 1095 1095 1095 1095 1095 1095 1095 1095 1095 1095 1095 1095 1095 1095 1095 1095 1095 1095 1095 1095 1095 1095 1095 1095 1095 1095 1095 1095 1095 1095 1095 1095 1095 1095 1095 1095 1095 1095 1095 1095 1095 1095 1095 1095 1095 1095 1095 1095 1095 1095 1095 1095 1095 1095 1095 1095 1095 1095 1095 1095 1095 1095 1095 1095 1095 1095 1095 1095 1095 1095 1095 1095 1095 1095 1095 1095 1095 1095 1095 1095 1095 1095 1095 1095 1095 1095 1095 1095 1095 1095 1095 1095 1095 1095 1095 1095 1095 1095 1095 1095 1095 1095 1095 1095 1095 1095 1095 1095 1095 1095 1095 1095 1095 1095 1095 1095 1095 1095 1095 1095 1095 1095 1095 1095 1095 1095 1095 1095 1095 1095 1095 1095 1095 1095 1095 1095 1095 1095 1095 1095 1095 1095 1095 1095 1095 1095 1095 1095 1095 1095 1095 1095 1095 1095 1095 1095 1095 1095 1095 1095 1095 1095 1095 1095 1095 1095 1095 1095 1095 1095 1095 1095 1095 1095 1095 1095 1095 1095 1095 1095 1095 1095 1095 1095 1095 1095 1095 1095 1095 1095 1095 1095 1095 1095 1095 1095 1095 1095 1095 1095 1095 1095 1095 1095 1095 1095 1095 1095 1095 1095 1095 1095 1095 1095 1095 1095 1095 1095 1095 1095 1095 1095 1095 1095 1095 1095 1095 1095 1095 1095 1095 1095 1095 1095 1095 1095 1095 1095 1095 1095 1095 1095 1095 1095 1095 1095 1095 1095 1095 1095 1095 1095 1095 1095 1095 1095 1095 1095 1095 1095 1095 1095 1095 1095 1095 1095 1095 1095 1095 1095 1095 1095 1095 1095 1095 1095 1095 1095 1095 1095 1095 1095 1095 1095 1095 1095 1095 1095 1095 1095 1095 1095 1095 1095 1095 1095 1095 1095 1095 1095 1095 1095 1095 1095 1095 1095 1095 1095 1095 1095 1095 1095 1095 1095 1095 1095 1095 1095 1095 1095 1095 1095 1095 1095 1095 1095 1095 1095 1095 1095 1095 1095 1095 1095 1095 1095 1095 1095 1095 1095 1095 1095 1095 1095 1095 1095 1095 1095 1095 1095 1095 1095 1095 1095 1095 1095 1095 1095 1095 1095 1095 1095 1095 1095 1095 1095 1095 1095 1095 1095 1095 1095 1095 1095 1095 1095 1095 1095 1095 1095 1095 1095 1095 1095 1095 1095 1095 1095 1095 1095 1095 1095 1095 1095 1095 1095 1095 1095 1095 1095 1095 1095 1095 
319 304 195 161 137 96 71 59 59 43 33 16 15 8 2 2 1 0 0 0 0 0 0 0 0 0 0 0 0 0 0 0 0 0 0 0 0 0 0 0 0 0 0 0 0 0 0 0 0 0 0 0 0 0 0 0 0 0 0 0 0 0 0 0 0 0 0 0 0 0 0 0 0 0 0 0 0 0 0 0 0 0 0 0 0 0 0 0 0 0 0 0 0 0 0 0 0 0 0 0 0 0 0 0 0 0 0 0 0 0 0 0 0 0 0 0 0 0 0 0 0 0 0 0 0 0 0 0 0 0 0 0 0 0 0 0 0 0 0 0 0 0 0 0 0 0 0 0 0 0 0 0 0 0 0 0 0 0 0 0 0 0 0 0 0 0 0 0 0 0 0 0 0 0 0 0 0 0 0 0 0 0 0 0 0 0 0 0 0 0 0 0 0 0 0 0 0 0 0 0 0 0 0 0 0 0 0 0 0 0 0 0 0 0 0 0 0 0 0 0 0 0 0 0 0 0 0 0 0 0 0 0 0 0 0 0 0 0 0 0 0 0 0 0 0 0 0 0 0 0 0 0 0 0 0 0 0 0 0 0 0 0 0 0 0 0 0 0 0 0 0 0 0 0 0 0 0 0 0 0 0 0 0 0 0 0 0 0 0 0 0 0 0 0 0 0 0 0 0 0 0 0 0 0 0 0 0 0 0 0 0 0 0 0 0 0 0 0 0 0 0 0 0 0 0 0 0 0 0 0 0 0 0 0 0 0 0 0 0 0 0 0 0 0 0 0 0 0 0 0 0 0 0 0 0 0 0 0 0 0 0 0 0 0 0 0 0 0 0 0 0 0 0 0 0 0 0 0 0 0 0 0 0 0 0 0 0 0 0 0 0 0 0 0 0 0 0 0 0 0 0 0 0 0 0 0 0 0 0 0 0 0 0 0 0 0 0 0 0 0 0 0 0 0 0 0 0 0 0 0 0 0 0 0 0 0 0 0 0 0 0 0 0 0 0 0 0 0 0 0 0 0 0 0 0 0 0 0 0 0 0 0 0 0 0 0 0 0 0 0 0 0 0 0 0 0 0 0 0 0 0 0 0 0 0 0 0 0 0 0 0 0 0 0 0 0 0 0 0 0 0 0 0 0 0 0 0 0 0 0 0 0 0 0 0 0 0 0 0 0 0 0 0 0 0 0 0 0 0 0 0 0 0 0 0 0 0 0 0 0 0 0 0 0 0 0 0 0 0 0 0 0 0 0 0 0 0 0 0 0 0 0 0 0 0 0 0 0 0 0 0 0 0 0 0 0 0 0 0 0 0 0 0 0 0 0 0 0 0 0 0 0 0 0 0 0 0 0 0 0 0 0 0 0 0 0 0 0 0 0 0 0 0 0 0 0 0 0 0 0 0 0 0 0 0 0 0 0 0 0 0 0 0 0 0 0 0 0 0 0 0 0 0 0 0 0 0 0 0 0 0 0 0 0 0 0 0 0 0 0 0 0 0 0 0 0 0 0 0 0 0 0 0 0 0 0 0 0 0 0 0 0 0 0 0 0 0 0 0 0 0 0 0 0 0 0 0 0 0 0 0 0 0 0 0 0 0 0 0 0 0 0 0 0 0 0 0 0 0 0 0 0 0 0 0 0 0 0 0 0 0 0 0 0 0 0 0 0 0 0 0 0 0 0 0 0 0 0 0 0 0 0 0 0 0 0 0 0 0 0 0 0 0 0 0 0 0 0 0 0 0 0 0 0 0 0 0 0 0 0 0 0 0 0 0 0 0 0 0 0 0 0 0 0 0 0 0 0 0 0 0 0 0 0 0 0 0 0 0 0 0 0 0 0 0 0 0 0 0 0 0 0 0 0 0 0 0 0 0 0 0 0 0 0 0 0 0 0 0 0 0 0 0 0 0 0 0 0 0 0 0 0 0 0 0 0 0 0 0 0 0 0 0 0 0 0 0 0 0 0 0 0 0 0 0 0 0 0 0 0 0 0 0 0 0 0 0 0 0 0 0 0 0 0 0 0 0 0 0 0 0 0 0 0 0 0 0 0 0 0 0 0 0 0 0 0 0 0 0 0 0 0 0 0 0 0 0 0 0 0 0 0 0 0 0 0 0 0 0 0 0 0 0 0 0 0 0 0 0 0 0 0 0 0 0 0 0 0 0 0 0 0 0 0 0 0 0 0 0 0 0 0 0 0 0 0 0 0 0 0 0 0 0 0 0 0 0 0 0 0 0 0 0 0 0 0 0 0 0 0 0 0 0 0 0 0 0 0 0 0 0 0 0 0 0 0 0 0 0 0 0 0 0 0 0 0 0 0 0 0 0 0 0 0 0 0 0 0 0 0 0 0 0 0 0 0 0 0 0 0 0 0 0 0 0 0 0 0 0 0 0 0 0 0 0 0 0 0 0 0 0 0 0 0 0 0 0 0 0 0 0 0 0 0 0 0 0 0 0 0 0 0 0 0 0 0 0 0 0 0 0 0 0 0 0 0 0 0 0 0 0 0 0 0 0 0 0 0 0 0 0 0 0 0 0 0 0 0 0 0 0 0 0 0 0 0 0 0 0 0 0 0 0 0 0 0 0 0 0 0 0 0 0 0 0 0 0 0 0 0 0 0 0 0 0 0 0 0 0 0 0 0 0 0 0 0 0 0 0 0 0 0 0 0 0 0 0 0 0 0 0 0 0 0 0 0 0 0 0 0 0 0 0 0 0 0 0 0 0 0 0 0 0 0 0 0 0 0 0 0 0 0 0 0 0 0 0 0 0 0 0 0 0 0 0 0 0 0 0 0 0 0 0 0 0 0 0 0 0 0 0 0 0 0 0 0 0 0 0 0 0 0 0 0 0 0 0 0 0 0 0 0 0 0 0 0 0 0 0 0 0 0 0 0 0 0 0 0 0 